p cnf 45 133
a 9 14 0
e 1 2 3 4 5 6 7 8 10 11 12 13 15 16 17 18 19 20 21 22 23 24 25 26 27 28 29 30 31 32 33 34 35 36 37 38 39 40 41 42 43 44 45 0
4 -2 0
4 3 0
2 -3 -4 0
-1 4 -5 0
1 -4 -5 0
-1 -4 5 0
1 4 5 0
6 -5 0
6 -3 0
5 3 -6 0
-8 -7 0
-8 2 0
7 -2 8 0
10 8 0
10 -9 0
-8 9 -10 0
-11 10 0
-11 1 0
-10 -1 11 0
-13 -8 0
-13 -12 0
8 12 13 0
-13 -14 0
13 -14 0
-15 -8 0
-15 -2 0
8 2 15 0
-16 -15 0
-16 -15 0
15 16 0
14 -16 -17 0
-14 16 -17 0
14 16 17 0
-14 -16 17 0
-19 5 0
-19 -18 0
-5 18 19 0
3 -20 -21 0
-3 20 -21 0
3 20 21 0
-3 -20 21 0
-13 -4 -22 0
13 4 -22 0
-13 4 22 0
13 -4 22 0
-23 22 0
-23 -2 0
-22 2 23 0
24 -18 0
24 23 0
18 -23 -24 0
-25 -23 0
-25 24 0
23 -24 25 0
-26 21 0
-26 -25 0
-21 25 26 0
-19 -26 -27 0
19 26 -27 0
-19 26 27 0
19 -26 27 0
28 -17 0
28 -27 0
17 27 -28 0
-29 11 0
-29 28 0
-11 -28 29 0
-30 6 0
-30 29 0
-6 -29 30 0
3 23 -31 0
-3 -23 -31 0
3 -23 31 0
-3 23 31 0
-32 -31 0
-32 7 0
31 -7 32 0
33 -30 0
33 -32 0
30 32 -33 0
-34 -2 0
-34 4 0
2 -4 34 0
13 2 -35 0
-13 -2 -35 0
13 -2 35 0
-13 2 35 0
34 35 -36 0
-34 -35 -36 0
34 -35 36 0
-34 35 36 0
-23 13 -37 0
23 -13 -37 0
-23 -13 37 0
23 13 37 0
37 12 -38 0
-37 -12 -38 0
37 -12 38 0
-37 12 38 0
39 37 0
39 37 0
-37 -39 0
40 38 0
40 -39 0
-38 39 -40 0
-41 40 0
-41 9 0
-40 -9 41 0
42 15 0
42 13 0
-15 -13 -42 0
43 41 0
43 42 0
-41 -42 -43 0
44 36 0
44 -43 0
-36 43 -44 0
45 -33 0
45 -44 0
33 44 -45 0
45 4 -22 -1 0
-41 45 -34 0
-44 -13 32 -28 9 -27 0
32 10 -39 40 -12 -16 0
2 13 34 25 -4 12 0
-17 16 8 -15 0
43 4 33 26 0
-40 -36 10 -2 38 -8 -23 0
-28 -14 43 -15 -36 -11 27 0
38 15 2 9 -25 0
-45 35 -13 -34 0
-6 -21 -33 0
45 0
